<number of tasks>
50

<cycle time>
1000

<order strength>
0.198


<task times>
1 85
2 151
3 51
4 95
5 70
6 73
7 33
8 24
9 83
10 141
11 201
12 132
13 30
14 259
15 190
16 146
17 101
18 212
19 132
20 120
21 165
22 88
23 92
24 279
25 232
26 64
27 102
28 120
29 175
30 200
31 142
32 161
33 160
34 159
35 212
36 42
37 166
38 115
39 160
40 249
41 181
42 52
43 168
44 167
45 28
46 108
47 210
48 48
49 299
50 44

<precedence relations>
3,11
3,28
4,6
4,8
4,9
4,12
5,7
5,10
5,29
6,16
7,18
7,19
8,13
9,18
10,17
10,20
11,15
11,21
12,14
14,24
14,25
15,23
15,24
18,26
20,22
24,29
24,32
25,30
26,27
26,28
26,31
30,36
32,33
32,34
32,35
32,37
34,38
34,39
34,45
35,43
36,40
36,41
37,42
37,44
39,50
40,45
40,49
40,50
42,46
42,47
43,48

<end>
